Copyright (C) 2013-2015, Filipe Brandao
Build (method = -2)
  #dp: 310
  Step-3' Graph: 29 vertices and 145 arcs (0.00s)
  Step-4' Graph: 19 vertices and 125 arcs (0.00s)
  #V4/#V3 = 0.66
  #A4/#A3 = 0.86
Ready! (0.00s)
Optimize a model with 54 rows, 126 columns and 345 nonzeros
Found heuristic solution: objective 41
Presolve removed 28 rows and 31 columns
Presolve time: 0.00s
Presolved: 26 rows, 95 columns, 243 nonzeros
Variable types: 0 continuous, 95 integer (64 binary)
Optimize a model with 26 rows, 95 columns and 243 nonzeros
Presolved: 26 rows, 95 columns, 243 nonzeros

Root barrier log...

Ordering time: 0.00s

Barrier statistics:
 AA' NZ     : 1.220e+02
 Factor NZ  : 2.970e+02
 Factor Ops : 4.149e+03 (less than 1 second per iteration)
 Threads    : 1

                  Objective                Residual
Iter       Primal          Dual         Primal    Dual     Compl     Time
   0   1.36246703e+02 -1.20828654e+02  1.04e+02 2.38e-01  4.21e+00     0s
   1   5.70927572e+01 -1.53361505e+01  1.08e+01 4.44e-16  6.06e-01     0s
   2   4.14309676e+01  2.82181319e+01  5.25e-01 2.78e-16  7.41e-02     0s
   3   3.76414673e+01  3.45744381e+01  1.55e-02 1.25e-16  1.61e-02     0s
   4   3.61529277e+01  3.57178633e+01  1.94e-03 1.11e-16  2.28e-03     0s
   5   3.60055395e+01  3.59968968e+01  3.64e-05 2.33e-16  4.53e-05     0s
   6   3.60000000e+01  3.59999999e+01  7.06e-10 2.22e-16  6.24e-10     0s
   7   3.60000000e+01  3.60000000e+01  8.18e-14 2.56e-16  8.63e-16     0s

Barrier solved model in 7 iterations and 0.00 seconds
Optimal objective 3.60000000e+01


Root relaxation: objective 3.600000e+01, 42 iterations, 0.00 seconds

    Nodes    |    Current Node    |     Objective Bounds      |     Work
 Expl Unexpl |  Obj  Depth IntInf | Incumbent    BestBd   Gap | It/Node Time

*    0     0               0      36.0000000   36.00000  0.00%     -    0s

Explored 0 nodes (42 simplex iterations) in 0.00 seconds
Thread count was 1 (of 4 available processors)

Optimal solution found (tolerance 0.00e+00)
Best objective 3.600000000000e+01, best bound 3.600000000000e+01, gap 0.0%
Preprocessing time: 0.00 seconds
Gurobi run time: 0.00 seconds
Total run time: 0.00 seconds
Objective: 36
Solution:
1 x [i=1]
2 x [i=2]
3 x [i=3]
1 x [i=4]
1 x [i=5]
2 x [i=6]
3 x [i=7]
1 x [i=8]
1 x [i=9]
1 x [i=10]
1 x [i=11, i=35]
1 x [i=12, i=34]
2 x [i=13]
1 x [i=14, i=32]
1 x [i=15, i=31]
1 x [i=15, i=33]
3 x [i=16]
1 x [i=17, i=30]
2 x [i=18, i=29]
1 x [i=19]
1 x [i=20, i=28]
1 x [i=20, i=35]
1 x [i=21, i=26]
1 x [i=22, i=27]
1 x [i=23, i=29]
1 x [i=24, i=25]
